beginners/solutions/Exercise12.out.smt2
sat
(
(define-fun x () (_ FiniteField 13) #f12m13)
(define-fun y () (_ FiniteField 13) #f1m13)
)
